NAME : portcgen-28-17
COMMENT : portcgen N=28, seed=17
TYPE : TSP
DIMENSION : 28
EDGE_WEIGHT_TYPE : EUC_2D
NODE_COORD_SECTION
1 408339 -203051
2 -113338 -109996
3 318907 196094
4 227306 -85289
5 275165 151298
6 -59507 402770
7 428605 177576
8 -244548 345495
9 134511 170452
10 838 -233648
11 -132199 180436
12 222712 219551
13 -101966 81230
14 -56004 -195681
15 -289671 -249984
16 73639 -326013
17 -1844 80845
18 -310563 -68592
19 -141561 9148
20 -427777 107500
21 307040 209407
22 -381379 -41942
23 -106733 -62807
24 413370 92594
25 -375573 -108741
26 121561 -245964
27 -73422 -109239
28 284031 -108836
